CapLotSizing_PM/src/Instancias/NCLSLT/25i6p2m/NBB06.OUT
 CG ITER, OVMR, OVMRUB =           1   29512.8085938   29512.8066406
 CG ITER, OVMR, OVMRUB =           2   29493.4101562   29493.4042969
 CG ITER, OVMR, OVMRUB =           3   29493.4042969   29493.4042969
 CG ITER, OVMR, OVMRUB =           4   29493.4042969   29493.4042969
 CG ITER, OVMR, OVMRUB =           5   29435.4550781   29493.4042969
 CG ITER, OVMR, OVMRUB =           6   29105.9121094   29493.4042969
 CG ITER, OVMR, OVMRUB =           7   28913.2226562   29493.4042969
 CG ITER, OVMR, OVMRUB =           8   28796.3945312   29493.4042969
 CG ITER, OVMR, OVMRUB =           9   28728.4160156   29493.4042969
 CG ITER, OVMR, OVMRUB =          10   28696.8593750   29493.4042969
 CG ITER, OVMR, OVMRUB =          11   28638.6484375   29493.4042969
 CG ITER, OVMR, OVMRUB =          12   28574.6855469   29493.4042969
 CG ITER, OVMR, OVMRUB =          13   28538.4414062   29493.4042969
 CG ITER, OVMR, OVMRUB =          14   28491.5214844   29493.4042969
 CG ITER, OVMR, OVMRUB =          15   28471.8789062   29493.4042969
 CG ITER, OVMR, OVMRUB =          16   28442.5703125   29493.4042969
 CG ITER, OVMR, OVMRUB =          17   28403.3925781   29493.4042969
 CG ITER, OVMR, OVMRUB =          18   28359.3496094   29493.4042969
 CG ITER, OVMR, OVMRUB =          19   28337.7656250   29493.4042969
 CG ITER, OVMR, OVMRUB =          20   28308.9785156   29493.4042969
 CG ITER, OVMR, OVMRUB =          21   28284.2343750   29493.4042969
 CG ITER, OVMR, OVMRUB =          22   28255.8632812   29493.4042969
 CG ITER, OVMR, OVMRUB =          23   28241.6953125   29493.4042969
 CG ITER, OVMR, OVMRUB =          24   28219.5566406   29493.4042969
 CG ITER, OVMR, OVMRUB =          25   28204.1855469   29493.4042969
 CG ITER, OVMR, OVMRUB =          26   28182.9511719   29493.4042969
 CG ITER, OVMR, OVMRUB =          27   28163.3339844   29493.4042969
 CG ITER, OVMR, OVMRUB =          28   28148.0195312   29493.4042969
 CG ITER, OVMR, OVMRUB =          29   28129.9531250   29493.4042969
 CG ITER, OVMR, OVMRUB =          30   28106.9687500   29493.4042969
 CG ITER, OVMR, OVMRUB =          31   28085.2636719   29493.4042969
 CG ITER, OVMR, OVMRUB =          32   28057.5234375   29493.4042969
 CG ITER, OVMR, OVMRUB =          33   28050.6113281   29493.4042969
 CG ITER, OVMR, OVMRUB =          34   28039.0859375   29493.4042969
 CG ITER, OVMR, OVMRUB =          35   28029.9687500   29493.4042969
 CG ITER, OVMR, OVMRUB =          36   28025.8925781   29493.4042969
 CG ITER, OVMR, OVMRUB =          37   28010.8046875   29072.4941406
 CG ITER, OVMR, OVMRUB =          38   28001.3652344   29072.4941406
 CG ITER, OVMR, OVMRUB =          39   27987.9785156   29072.4941406
 CG ITER, OVMR, OVMRUB =          40   27978.2578125   29072.4941406
 CG ITER, OVMR, OVMRUB =          41   27963.3398438   29072.4941406
 CG ITER, OVMR, OVMRUB =          42   27948.1269531   29072.4941406
 CG ITER, OVMR, OVMRUB =          43   27942.6113281   29072.4941406
 CG ITER, OVMR, OVMRUB =          44   27935.1718750   29072.4941406
 CG ITER, OVMR, OVMRUB =          45   27927.5683594   29072.4941406
 CG ITER, OVMR, OVMRUB =          46   27922.8769531   29072.4941406
 CG ITER, OVMR, OVMRUB =          47   27916.6289062   29072.4941406
 CG ITER, OVMR, OVMRUB =          48   27912.5761719   29072.4941406
 CG ITER, OVMR, OVMRUB =          49   27911.0761719   29072.4941406
 CG ITER, OVMR, OVMRUB =          50   27904.8710938   29072.4941406
 CG ITER, OVMR, OVMRUB =          51   27898.1191406   28891.1054688
 CG ITER, OVMR, OVMRUB =          52   27897.7851562   28891.1054688
 CG ITER, OVMR, OVMRUB =          53   27894.8320312   28198.5000000
 CG ITER, OVMR, OVMRUB =          54   27892.4765625   28198.5000000
 CG ITER, OVMR, OVMRUB =          55   27890.2031250   28198.5000000
 CG ITER, OVMR, OVMRUB =          56   27889.5976562   28198.5000000
 CG ITER, OVMR, OVMRUB =          57   27885.8398438   28198.5000000
 CG ITER, OVMR, OVMRUB =          58   27878.8007812   28198.5000000
 CG ITER, OVMR, OVMRUB =          59   27876.9882812   28198.5000000
 CG ITER, OVMR, OVMRUB =          60   27874.9902344   28198.5000000
 CG ITER, OVMR, OVMRUB =          61   27871.4921875   28198.5000000
 CG ITER, OVMR, OVMRUB =          62   27868.7968750   28198.5000000
 CG ITER, OVMR, OVMRUB =          63   27864.8925781   28198.5000000
 CG ITER, OVMR, OVMRUB =          64   27862.9765625   28113.1972656
 CG ITER, OVMR, OVMRUB =          65   27862.2421875   28113.1972656
 CG ITER, OVMR, OVMRUB =          66   27861.8769531   28113.1972656
 CG ITER, OVMR, OVMRUB =          67   27859.6875000   28113.1972656
 CG ITER, OVMR, OVMRUB =          68   27859.5253906   28113.1972656
 CG ITER, OVMR, OVMRUB =          69   27858.4804688   28108.2988281
 CG ITER, OVMR, OVMRUB =          70   27858.4824219   28040.5917969
 CG ITER, OVMR, OVMRUB =          71   27858.4785156   28040.5917969
 CG ITER, OVMR, OVMRUB =          72   27858.4804688   28040.5917969
 CG ITER, OVMR, OVMRUB =          73   27858.4843750   28036.0996094
 CG ITER, OVMR, OVMRUB =          74   27858.4785156   28036.0996094
 CG ITER, OVMR, OVMRUB =          75   27858.4785156   27939.4960938
OVLB =   27858.4785156 OVLUB =   27939.4960938 TIME =      62.5000000
